wr=304;
nProviders=38;

cost_worker=[ 498 361 285 226 453 401 480 362 230 429 208 287 448 494 208 443 472 395 304 425 351 317 421 485 250 266 316 457 276 432 222 241 277 367 390 297 406 445 ];
available_workers=[ 20 21 25 24 24 29 26 30 20 24 24 26 29 21 21 22 29 26 25 21 25 28 30 24 28 28 30 25 22 30 24 25 27 25 23 22 27 20 ];
cost_contract=[ 1582 1059 3474 1762 1902 2872 1017 2511 1684 2149 3419 1585 1859 2318 2682 2546 2590 3434 2316 1482 1295 2226 2364 1847 2969 2877 3478 1597 3323 2085 1241 3254 2647 2440 2491 2963 3191 2897 ];
country=[ 3 3 5 5 1 1 4 4 1 2 5 4 3 1 4 1 2 3 1 5 5 3 2 2 2 5 2 3 3 3 5 2 4 5 1 3 5 3 ];

cost_1=5;
cost_2=10;
cost_3=250;